NAME : input100_2.txt .out.tour
COMMENT : Tour for input100_2.txt .tsp (Length 1038.69)
TYPE : TOUR
DIMENSION : 100
TOUR_SECTION
1
48
91
29
49
26
30
72
56
18
58
44
77
45
86
9
81
92
64
35
38
40
84
68
57
76
22
2
42
39
61
21
53
3
63
96
100
51
88
94
93
43
98
13
95
36
65
78
11
23
16
50
10
75
5
82
90
15
55
20
25
47
4
97
99
60
59
33
67
85
6
69
73
24
71
83
19
41
89
87
52
14
8
27
74
12
34
31
46
70
66
79
7
54
80
32
62
37
17
28
1
